certificates/rado_a29_c28_N60.drat
-59 -60 0
d -59 -1 -60 0
29 30 59 0
-2 59 0
-60 0
59 0
2 0
-1 0
-32 0
-29 0
3 0
33 0
31 0
30 0
28 0
0
